(set-logic QF_NRA)
(declare-fun a () Real)
(declare-fun b () Real)
(declare-fun r () Real)
(declare-fun s () Real)
(declare-fun t () Real)
(assert (and (= (+ (+ r s) t) 0) (= (- (+ (+ (* r s) (* s t)) (* t r)) a) 0) (= (- (* (* r s) t) b) 0)))
(eliminate-quantifiers (exists a b))
(exit)
